20 27 2 1 100 32 69 37 7 58 23 18 19 83 82 15 70 79 78 77 8 21 
93 29 92 35 4 91 16 96 
67 63 75 99 61 64 94 68 39 36 89 60 84 57 40 45 71 50 52 25 11 
5 62 74 97 33 31 95 54 53 56 34 28 59 86 46 76 17 13 47 9 42 87 
30 6 66 65 98 55 88 14 51 81 41 
22 24 72 49 38 3 26 44 85 12 73 80 43 10 48 90 

